% demand
num_movements = 16;
loading_factor = [1350, 1200, 1500, 1250, 1000, 1500, 800, 1900, 1350, 1250, 1250, 1600, 1050, 1600, 1650, 1150];
pickup_time = [0, 0, 1, 1, 1, 2, 3, 3, 3, 4, 7, 7, 8, 8, 8, 9];
delivery_time = [2, 3, 3, 3, 3, 7, 9, 9, 7, 6, 8, 8, 11, 10, 12, 10];

% transporter definition
total_capacity = 7000;
num_decks = 3;
capacity = [3000, 1000, 3000];

% ways out of decks
num_ways_out = 1;
paths_out = array3d(decks, ways_out, decks, [
% ways out of deck d1
2, 3, 0, 

% ways out of deck d2
3, 0, 0, 

% ways out of deck d3
0, 0, 0,	

]);

